\* SchedulingCourses *\
Minimize
OBJ: - 2 y(ABS_ALG) - 60 y(ALL_SOC_SCI) - 20 y(ART_CON) - 100 y(BUS_SCH_ELECT)
 - y(CS_2022) - y(CS_3043) - 45 y(CS_DS_DEPTS) - y(DS_4635) - y(ECON_2910)
 - 20 y(FLG_CON) - 20 y(HI_CON) - y(HUA_PROJ) - y(ID_2050) - 100 y(IQP_OFF_CM)
 - 25 y(IQP_ON_CM) - 26 y(MA_3000P) - y(MA_3631) - 50 y(MA_ANY)
 - 2 y(NUM_METHD) - 20 y(PY_CON) - 2 y(REAL_ALYS) - 100 y(REG_SCI_ES)
 - 2 y(TRANSIT_LL) - 7 y(TRANSIT_R) - 20 y(WR_CON)
Subject To
SR(HUA_ART_MAX): - 3 x(ART_CON)(HUA_CORE) >= -12
SR(HUA_HI_MAX): - 3 x(HI_CON)(HUA_CORE) >= -12
SR(HUA_PY_MAX): - 3 x(PY_CON)(HUA_CORE) >= -12
SR(HUA_WR_MAX): - 3 x(WR_CON)(HUA_CORE) >= -12
SR(MA_CSDS_MAX): - 3 x(CS_2022)(MA_CS_DS) - 3 x(CS_2022)(MA_REL_CR)
 - 3 x(CS_3043)(MA_CS_DS) - 3 x(CS_3043)(MA_REL_CR) >= -3
SR(MA_REL_CR_MAX): - 3 x(BUS_SCH_ELECT)(MA_REL_CR) - 3 x(CS_2022)(MA_REL_CR)
 - 3 x(CS_3043)(MA_REL_CR) - 3 x(CS_DS_DEPTS)(MA_REL_CR)
 - 3 x(DS_4635)(MA_REL_CR) - 3 x(ECON_2910)(MA_REL_CR)
 - 3 x(REG_SCI_ES)(MA_REL_CR) >= -7.5
SR(MA_TRANSIT_MAX): - 3 x(TRANSIT_LL)(MA_TRANSIT) >= -3
SR(ON_OFF_CAMPUS): 3 x(ID_2050)(SOC_SCI_REQ) + 9 x(IQP_ON_CM)(IQP) >= 3
SR2(HUA_DEPTH)(C0): - 9 SR2(HUA_DEPTH_0) + 3 x(ART_CON)(HUA_CORE) >= -0.1
SR2(HUA_DEPTH)(C1): - 9 SR2(HUA_DEPTH_1) + 3 x(FLG_CON)(HUA_CORE) >= -0.1
SR2(HUA_DEPTH)(C2): - 9 SR2(HUA_DEPTH_2) + 3 x(WR_CON)(HUA_CORE) >= -0.1
SR2(HUA_DEPTH)(C3): - 9 SR2(HUA_DEPTH_3) + 3 x(HI_CON)(HUA_CORE) >= -0.1
SR2(HUA_DEPTH)(C4): - 9 SR2(HUA_DEPTH_4) + 3 x(PY_CON)(HUA_CORE) >= -0.1
SR2_total(HUA_DEPTH): SR2(HUA_DEPTH_0) + SR2(HUA_DEPTH_1) + SR2(HUA_DEPTH_2)
 + SR2(HUA_DEPTH_3) + SR2(HUA_DEPTH_4) >= 1
credMax: 3 y(ABS_ALG) + 3 y(ALL_SOC_SCI) + 3 y(ART_CON) + 3 y(BUS_SCH_ELECT)
 + 3 y(CS_2022) + 3 y(CS_3043) + 3 y(CS_DS_DEPTS) + 3 y(DS_4635)
 + 3 y(ECON_2910) + 3 y(FLG_CON) + 3 y(HI_CON) + 3 y(HUA_PROJ) + 3 y(ID_2050)
 + 9 y(IQP_OFF_CM) + 9 y(IQP_ON_CM) + 3 y(MA_3000P) + 3 y(MA_3631)
 + 3 y(MA_ANY) + 3 y(NUM_METHD) + 3 y(PY_CON) + 3 y(REAL_ALYS)
 + 3 y(REG_SCI_ES) + 3 y(TRANSIT_LL) + 3 y(TRANSIT_R) + 3 y(WR_CON)
 + 0.01 z(HUA_CORE) + 0.01 z(HUA_PROJ) + 0.01 z(IQP) + 0.01 z(MA_ABSTR)
 + 0.01 z(MA_CS_DS) + 0.01 z(MA_GEN_SCI) + 0.01 z(MA_INTRO) + 0.01 z(MA_NMTHD)
 + 0.01 z(MA_REAL) + 0.01 z(MA_REL_CR) + 0.01 z(MA_TRANSIT)
 + 0.01 z(MA_UPRLVL) + 0.01 z(SOC_SCI_REQ) = 108
reqMin(HUA_CORE): 3 x(ART_CON)(HUA_CORE) + 3 x(FLG_CON)(HUA_CORE)
 + 3 x(HI_CON)(HUA_CORE) + 3 x(PY_CON)(HUA_CORE) + 3 x(WR_CON)(HUA_CORE)
 - z(HUA_CORE) = 15
reqMin(HUA_PROJ): 3 x(HUA_PROJ)(HUA_PROJ) - z(HUA_PROJ) = 3
reqMin(IQP): 9 x(IQP_OFF_CM)(IQP) + 9 x(IQP_ON_CM)(IQP) - z(IQP) = 9
reqMin(MA_ABSTR): 3 x(ABS_ALG)(MA_ABSTR) - z(MA_ABSTR) = 3
reqMin(MA_CS_DS): 3 x(CS_2022)(MA_CS_DS) + 3 x(CS_3043)(MA_CS_DS)
 + 3 x(CS_DS_DEPTS)(MA_CS_DS) + 3 x(DS_4635)(MA_CS_DS) - z(MA_CS_DS) = 6
reqMin(MA_GEN_SCI): 3 x(REG_SCI_ES)(MA_GEN_SCI) - z(MA_GEN_SCI) = 6
reqMin(MA_INTRO): 3 x(ABS_ALG)(MA_INTRO) + 3 x(CS_2022)(MA_INTRO)
 + 3 x(DS_4635)(MA_INTRO) + 3 x(MA_3000P)(MA_INTRO) + 3 x(MA_3631)(MA_INTRO)
 + 3 x(MA_ANY)(MA_INTRO) + 3 x(NUM_METHD)(MA_INTRO) + 3 x(REAL_ALYS)(MA_INTRO)
 + 3 x(TRANSIT_LL)(MA_INTRO) + 3 x(TRANSIT_R)(MA_INTRO) - z(MA_INTRO) = 24
reqMin(MA_NMTHD): 3 x(NUM_METHD)(MA_NMTHD) - z(MA_NMTHD) = 3
reqMin(MA_REAL): 3 x(REAL_ALYS)(MA_REAL) - z(MA_REAL) = 6
reqMin(MA_REL_CR): 3 x(BUS_SCH_ELECT)(MA_REL_CR) + 3 x(CS_2022)(MA_REL_CR)
 + 3 x(CS_3043)(MA_REL_CR) + 3 x(CS_DS_DEPTS)(MA_REL_CR)
 + 3 x(DS_4635)(MA_REL_CR) + 3 x(ECON_2910)(MA_REL_CR)
 + 3 x(REG_SCI_ES)(MA_REL_CR) - z(MA_REL_CR) = 6
reqMin(MA_TRANSIT): 3 x(MA_3631)(MA_TRANSIT) + 3 x(TRANSIT_LL)(MA_TRANSIT)
 + 3 x(TRANSIT_R)(MA_TRANSIT) - z(MA_TRANSIT) = 12
reqMin(MA_UPRLVL): 3 x(ABS_ALG)(MA_UPRLVL) + 3 x(DS_4635)(MA_UPRLVL)
 + 3 x(MA_3000P)(MA_UPRLVL) + 3 x(MA_3631)(MA_UPRLVL)
 + 3 x(NUM_METHD)(MA_UPRLVL) + 3 x(REAL_ALYS)(MA_UPRLVL) - z(MA_UPRLVL) = 9
reqMin(SOC_SCI_REQ): 3 x(ALL_SOC_SCI)(SOC_SCI_REQ)
 + 3 x(ECON_2910)(SOC_SCI_REQ) + 3 x(ID_2050)(SOC_SCI_REQ) - z(SOC_SCI_REQ)
 = 6
setY1(ABS_ALG): x(ABS_ALG)(MA_ABSTR) + x(ABS_ALG)(MA_INTRO)
 + x(ABS_ALG)(MA_UPRLVL) - y(ABS_ALG) <= 0
setY1(ALL_SOC_SCI): x(ALL_SOC_SCI)(SOC_SCI_REQ) - y(ALL_SOC_SCI) <= 0
setY1(ART_CON): x(ART_CON)(HUA_CORE) - y(ART_CON) <= 0
setY1(BUS_SCH_ELECT): x(BUS_SCH_ELECT)(MA_REL_CR) - y(BUS_SCH_ELECT) <= 0
setY1(CS_2022): x(CS_2022)(MA_CS_DS) + x(CS_2022)(MA_INTRO)
 + x(CS_2022)(MA_REL_CR) - y(CS_2022) <= 0
setY1(CS_3043): x(CS_3043)(MA_CS_DS) + x(CS_3043)(MA_REL_CR) - y(CS_3043) <= 0
setY1(CS_DS_DEPTS): x(CS_DS_DEPTS)(MA_CS_DS) + x(CS_DS_DEPTS)(MA_REL_CR)
 - y(CS_DS_DEPTS) <= 0
setY1(DS_4635): x(DS_4635)(MA_CS_DS) + x(DS_4635)(MA_INTRO)
 + x(DS_4635)(MA_REL_CR) + x(DS_4635)(MA_UPRLVL) - y(DS_4635) <= 0
setY1(ECON_2910): x(ECON_2910)(MA_REL_CR) + x(ECON_2910)(SOC_SCI_REQ)
 - y(ECON_2910) <= 0
setY1(FLG_CON): x(FLG_CON)(HUA_CORE) - y(FLG_CON) <= 0
setY1(HI_CON): x(HI_CON)(HUA_CORE) - y(HI_CON) <= 0
setY1(HUA_PROJ): x(HUA_PROJ)(HUA_PROJ) - y(HUA_PROJ) <= 0
setY1(ID_2050): x(ID_2050)(SOC_SCI_REQ) - y(ID_2050) <= 0
setY1(IQP_OFF_CM): x(IQP_OFF_CM)(IQP) - y(IQP_OFF_CM) <= 0
setY1(IQP_ON_CM): x(IQP_ON_CM)(IQP) - y(IQP_ON_CM) <= 0
setY1(MA_3000P): x(MA_3000P)(MA_INTRO) + x(MA_3000P)(MA_UPRLVL) - y(MA_3000P)
 <= 0
setY1(MA_3631): x(MA_3631)(MA_INTRO) + x(MA_3631)(MA_TRANSIT)
 + x(MA_3631)(MA_UPRLVL) - y(MA_3631) <= 0
setY1(MA_ANY): x(MA_ANY)(MA_INTRO) - y(MA_ANY) <= 0
setY1(NUM_METHD): x(NUM_METHD)(MA_INTRO) + x(NUM_METHD)(MA_NMTHD)
 + x(NUM_METHD)(MA_UPRLVL) - y(NUM_METHD) <= 0
setY1(PY_CON): x(PY_CON)(HUA_CORE) - y(PY_CON) <= 0
setY1(REAL_ALYS): x(REAL_ALYS)(MA_INTRO) + x(REAL_ALYS)(MA_REAL)
 + x(REAL_ALYS)(MA_UPRLVL) - y(REAL_ALYS) <= 0
setY1(REG_SCI_ES): x(REG_SCI_ES)(MA_GEN_SCI) + x(REG_SCI_ES)(MA_REL_CR)
 - y(REG_SCI_ES) <= 0
setY1(TRANSIT_LL): x(TRANSIT_LL)(MA_INTRO) + x(TRANSIT_LL)(MA_TRANSIT)
 - y(TRANSIT_LL) <= 0
setY1(TRANSIT_R): x(TRANSIT_R)(MA_INTRO) + x(TRANSIT_R)(MA_TRANSIT)
 - y(TRANSIT_R) <= 0
setY1(WR_CON): x(WR_CON)(HUA_CORE) - y(WR_CON) <= 0
Bounds
 0 <= x(ABS_ALG)(MA_ABSTR) <= 2
 0 <= x(ABS_ALG)(MA_INTRO) <= 2
 0 <= x(ABS_ALG)(MA_UPRLVL) <= 2
 0 <= x(ALL_SOC_SCI)(SOC_SCI_REQ) <= 60
 0 <= x(ART_CON)(HUA_CORE) <= 20
 0 <= x(BUS_SCH_ELECT)(MA_REL_CR) <= 100
 0 <= x(CS_DS_DEPTS)(MA_CS_DS) <= 40
 0 <= x(CS_DS_DEPTS)(MA_REL_CR) <= 40
 0 <= x(FLG_CON)(HUA_CORE) <= 20
 0 <= x(HI_CON)(HUA_CORE) <= 20
 0 <= x(HUA_PROJ)(HUA_PROJ) <= 2
 0 <= x(IQP_OFF_CM)(IQP) <= 4
 0 <= x(MA_3000P)(MA_INTRO) <= 22
 0 <= x(MA_3000P)(MA_UPRLVL) <= 22
 0 <= x(MA_ANY)(MA_INTRO) <= 16
 0 <= x(NUM_METHD)(MA_INTRO) <= 2
 0 <= x(NUM_METHD)(MA_NMTHD) <= 2
 0 <= x(NUM_METHD)(MA_UPRLVL) <= 2
 0 <= x(PY_CON)(HUA_CORE) <= 20
 0 <= x(REAL_ALYS)(MA_INTRO) <= 2
 0 <= x(REAL_ALYS)(MA_REAL) <= 2
 0 <= x(REAL_ALYS)(MA_UPRLVL) <= 2
 0 <= x(REG_SCI_ES)(MA_GEN_SCI) <= 100
 0 <= x(REG_SCI_ES)(MA_REL_CR) <= 100
 0 <= x(TRANSIT_LL)(MA_INTRO) <= 2
 0 <= x(TRANSIT_LL)(MA_TRANSIT) <= 2
 0 <= x(TRANSIT_R)(MA_INTRO) <= 7
 0 <= x(TRANSIT_R)(MA_TRANSIT) <= 7
 0 <= x(WR_CON)(HUA_CORE) <= 20
 0 <= y(ABS_ALG) <= 2
 0 <= y(ALL_SOC_SCI) <= 60
 0 <= y(ART_CON) <= 20
 0 <= y(BUS_SCH_ELECT) <= 100
 0 <= y(CS_DS_DEPTS) <= 40
 0 <= y(FLG_CON) <= 20
 0 <= y(HI_CON) <= 20
 0 <= y(HUA_PROJ) <= 2
 0 <= y(IQP_OFF_CM) <= 4
 0 <= y(MA_3000P) <= 22
 0 <= y(MA_ANY) <= 16
 0 <= y(NUM_METHD) <= 2
 0 <= y(PY_CON) <= 20
 0 <= y(REAL_ALYS) <= 2
 0 <= y(REG_SCI_ES) <= 100
 0 <= y(TRANSIT_LL) <= 2
 0 <= y(TRANSIT_R) <= 7
 0 <= y(WR_CON) <= 20
 0 <= z(HUA_CORE)
 0 <= z(HUA_PROJ)
 0 <= z(IQP)
 0 <= z(MA_ABSTR)
 0 <= z(MA_CS_DS)
 0 <= z(MA_GEN_SCI)
 0 <= z(MA_INTRO)
 0 <= z(MA_NMTHD)
 0 <= z(MA_REAL)
 0 <= z(MA_REL_CR)
 0 <= z(MA_TRANSIT)
 0 <= z(MA_UPRLVL)
 0 <= z(SOC_SCI_REQ)
Generals
x(ABS_ALG)(MA_ABSTR)
x(ABS_ALG)(MA_INTRO)
x(ABS_ALG)(MA_UPRLVL)
x(ALL_SOC_SCI)(SOC_SCI_REQ)
x(ART_CON)(HUA_CORE)
x(BUS_SCH_ELECT)(MA_REL_CR)
x(CS_DS_DEPTS)(MA_CS_DS)
x(CS_DS_DEPTS)(MA_REL_CR)
x(FLG_CON)(HUA_CORE)
x(HI_CON)(HUA_CORE)
x(HUA_PROJ)(HUA_PROJ)
x(IQP_OFF_CM)(IQP)
x(MA_3000P)(MA_INTRO)
x(MA_3000P)(MA_UPRLVL)
x(MA_ANY)(MA_INTRO)
x(NUM_METHD)(MA_INTRO)
x(NUM_METHD)(MA_NMTHD)
x(NUM_METHD)(MA_UPRLVL)
x(PY_CON)(HUA_CORE)
x(REAL_ALYS)(MA_INTRO)
x(REAL_ALYS)(MA_REAL)
x(REAL_ALYS)(MA_UPRLVL)
x(REG_SCI_ES)(MA_GEN_SCI)
x(REG_SCI_ES)(MA_REL_CR)
x(TRANSIT_LL)(MA_INTRO)
x(TRANSIT_LL)(MA_TRANSIT)
x(TRANSIT_R)(MA_INTRO)
x(TRANSIT_R)(MA_TRANSIT)
x(WR_CON)(HUA_CORE)
y(ABS_ALG)
y(ALL_SOC_SCI)
y(ART_CON)
y(BUS_SCH_ELECT)
y(CS_DS_DEPTS)
y(FLG_CON)
y(HI_CON)
y(HUA_PROJ)
y(IQP_OFF_CM)
y(MA_3000P)
y(MA_ANY)
y(NUM_METHD)
y(PY_CON)
y(REAL_ALYS)
y(REG_SCI_ES)
y(TRANSIT_LL)
y(TRANSIT_R)
y(WR_CON)
Binaries
SR2(HUA_DEPTH_0)
SR2(HUA_DEPTH_1)
SR2(HUA_DEPTH_2)
SR2(HUA_DEPTH_3)
SR2(HUA_DEPTH_4)
x(CS_2022)(MA_CS_DS)
x(CS_2022)(MA_INTRO)
x(CS_2022)(MA_REL_CR)
x(CS_3043)(MA_CS_DS)
x(CS_3043)(MA_REL_CR)
x(DS_4635)(MA_CS_DS)
x(DS_4635)(MA_INTRO)
x(DS_4635)(MA_REL_CR)
x(DS_4635)(MA_UPRLVL)
x(ECON_2910)(MA_REL_CR)
x(ECON_2910)(SOC_SCI_REQ)
x(ID_2050)(SOC_SCI_REQ)
x(IQP_ON_CM)(IQP)
x(MA_3631)(MA_INTRO)
x(MA_3631)(MA_TRANSIT)
x(MA_3631)(MA_UPRLVL)
y(CS_2022)
y(CS_3043)
y(DS_4635)
y(ECON_2910)
y(ID_2050)
y(IQP_ON_CM)
y(MA_3631)
End
